# Solution for model GasLib-40
# Objective value = 1.2906362831259099e+01
loadshed[innode_1] 0
loadshed[innode_2] 0
loadshed[innode_3] 0
loadshed[innode_4] 0
loadshed[innode_5] 0
loadshed[innode_6] 0
loadshed[innode_7] 0
loadshed[innode_8] 0
loadshed[source_1] -2.0609726692423669e-01
loadshed[source_2] -3.6586838532287835e-02
loadshed[source_3] 3.2432329929354420e-01
loadshed[sink_1] 0
loadshed[sink_2] 0
loadshed[sink_3] 0
loadshed[sink_4] 0
loadshed[sink_5] 0
loadshed[sink_6] 0
loadshed[sink_7] 0
loadshed[sink_8] 0
loadshed[sink_9] 0
loadshed[sink_10] 0
loadshed[sink_11] 0
loadshed[sink_12] 0.789178873758518
loadshed[sink_13] 0
loadshed[sink_14] 0
loadshed[sink_15] 0
loadshed[sink_16] 0
loadshed[sink_17] 0
loadshed[sink_18] 0
loadshed[sink_19] 0
loadshed[sink_20] 0
loadshed[sink_21] 0
loadshed[sink_22] 0
loadshed[sink_23] 0
loadshed[sink_24] 0
loadshed[sink_25] 0
loadshed[sink_26] 0
loadshed[sink_27] 0
loadshed[sink_28] 0
loadshed[sink_29] 0
flow[source_1,sink_3] 1.9067225195507115e+02
flow[innode_1,sink_16] 1.6354166666666970e+01
flow[innode_6,sink_13] 7.6612493640109562e+00
flow[sink_13,sink_14] -8.6929173026557116e+00
flow[sink_14,sink_10] -2.5047083969322330e+01
flow[sink_25,sink_26] 1.7687293538975536e+02
flow[sink_26,sink_9] 1.5063530383540848e+02
flow[sink_9,sink_18] 1.3428113716874182e+02
flow[sink_26,sink_4] 9.8834648876808160e+00
flow[sink_4,sink_20] -6.4707017789858128e+00
flow[sink_18,sink_6] 1.1792697050207516e+02
flow[sink_25,innode_8] -1.5796391862173479e+02
flow[sink_6,sink_7] 6.8864470502074255e+01
flow[sink_6,sink_22] 3.2708333333333641e+01
flow[sink_7,sink_24] 3.6156137168740905e+01
flow[sink_22,sink_1] 1.6354166666666970e+01
flow[sink_24,sink_21] 1.9801970502074237e+01
flow[sink_21,sink_12] 3.44780383540757
flow[sink_7,sink_5] 1.6354166666667368e+01
flow[sink_5,sink_17] 0
flow[sink_17,sink_4] 0
flow[sink_17,sink_8] -1.6354166666672256e+01
flow[sink_3,sink_23] 16.3541666666697
flow[sink_8,sink_20] -3.2708333333338928e+01
flow[sink_25,sink_20] 5.5533201778991611e+01
flow[sink_25,sink_15] -9.8457634577689987e+01
flow[sink_15,sink_29] -6.3866610667405695e+01
flow[sink_29,sink_28] 1.6354166666667879e+01
flow[sink_29,sink_2] 6.7299357243617635e+01
flow[sink_2,sink_15] 5.0945190576950964e+01
flow[sink_29,innode_7] -1.6387430124435787e+02
flow[innode_4,sink_19] 4.0893342771368069e+01
flow[sink_19,innode_3] 0
flow[innode_4,innode_5] 6.5924574531287945e+01
flow[sink_27,innode_5] -6.5924574531287945e+01
flow[sink_27,sink_19] 4.9570407864621281e+01
flow[sink_10,sink_11] 3.2708333333333641e+01
flow[sink_10,innode_2] -7.4109583969322827e+01
flow[sink_10,innode_3] 0
flow[innode_6,sink_25] -7.6612493640109562e+00
flow[sink_11,innode_1] 1.6354166666666970e+01
flow[sink_19,innode_2] 7.4109583969322827e+01
flow[source_3,innode_4] 1.0681791730265601e+02
flow[source_2,innode_7] 1.6387430124435787e+02
flow[sink_3,innode_8] 1.5796391862173479e+02
pressure[innode_1] 75.287857584512
pressure[innode_2] 7.9356556487500626e+01
pressure[innode_3] 7.9356556487500626e+01
pressure[innode_4] 81.01325
pressure[innode_5] 80.9679036014238
pressure[innode_6] 74.2815454615735
pressure[innode_7] 81.01325
pressure[innode_8] 8.0375905501154577e+01
pressure[source_1] 81.01325
pressure[source_2] 81.01325
pressure[source_3] 81.01325
pressure[sink_1] 4.2699806173309916e+01
pressure[sink_2] 74.9254857476388
pressure[sink_3] 8.0375905501154577e+01
pressure[sink_4] 6.0567879188418914e+01
pressure[sink_5] 3.7053968724862742e+01
pressure[sink_6] 4.4800883783697287e+01
pressure[sink_7] 4.3855538751757457e+01
pressure[sink_8] 5.8763289110869771e+01
pressure[sink_9] 5.2808576780221358e+01
pressure[sink_10] 7.5439558892115542e+01
pressure[sink_11] 75.287857584512
pressure[sink_12] 1.01325
pressure[sink_13] 7.4239310274143421e+01
pressure[sink_14] 7.4254866990129344e+01
pressure[sink_15] 74.7591609285442
pressure[sink_16] 7.4266207749694317e+01
pressure[sink_17] 58.146203915456
pressure[sink_18] 4.7949885010836212e+01
pressure[sink_19] 7.9356556487500626e+01
pressure[sink_20] 6.1042599958046509e+01
pressure[sink_21] 2.2401673036769489e+00
pressure[sink_22] 4.3763575315664923e+01
pressure[sink_23] 8.0211187489494790e+01
pressure[sink_24] 2.4594557287626095e+00
pressure[sink_25] 74.2815454615735
pressure[sink_26] 61.8244884937877
pressure[sink_27] 8.0420851448329742e+01
pressure[sink_28] 7.6334972144933815e+01
pressure[sink_29] 7.6630254418550990e+01
interdiction[source_1,sink_3] 0
interdiction[innode_1,sink_16] 0
interdiction[innode_6,sink_13] 0
interdiction[sink_13,sink_14] 0
interdiction[sink_14,sink_10] 0
interdiction[sink_25,sink_26] 0
interdiction[sink_26,sink_9] 0
interdiction[sink_9,sink_18] 0
interdiction[sink_26,sink_4] 0
interdiction[sink_4,sink_20] 0
interdiction[sink_18,sink_6] 0
interdiction[sink_25,innode_8] 0
interdiction[sink_6,sink_7] 0
interdiction[sink_6,sink_22] 0
interdiction[sink_7,sink_24] 0
interdiction[sink_22,sink_1] 0
interdiction[sink_24,sink_21] 0
interdiction[sink_21,sink_12] 0
interdiction[sink_7,sink_5] 0
interdiction[sink_5,sink_17] 1
interdiction[sink_17,sink_4] 1
interdiction[sink_17,sink_8] 0
interdiction[sink_3,sink_23] 0
interdiction[sink_8,sink_20] 0
interdiction[sink_25,sink_20] 0
interdiction[sink_25,sink_15] 0
interdiction[sink_15,sink_29] 0
interdiction[sink_29,sink_28] 0
interdiction[sink_29,sink_2] 0
interdiction[sink_2,sink_15] 0
interdiction[sink_29,innode_7] 0
interdiction[innode_4,sink_19] 0
interdiction[sink_19,innode_3] 0
interdiction[innode_4,innode_5] 0
interdiction[sink_27,innode_5] 0
interdiction[sink_27,sink_19] 0
interdiction[sink_10,sink_11] 0
interdiction[sink_10,innode_2] 0
interdiction[sink_10,innode_3] 1
interdiction[innode_6,sink_25] 0
interdiction[sink_11,innode_1] 0
interdiction[sink_19,innode_2] 0
interdiction[source_3,innode_4] 0
interdiction[source_2,innode_7] 0
interdiction[sink_3,innode_8] 0
WCcheckFlow[source_1,sink_3] 39
WCcheckFlow[innode_1,sink_16] 1
WCcheckFlow[innode_6,sink_13] 13
WCcheckFlow[sink_13,sink_14] 12
WCcheckFlow[sink_14,sink_10] 11
WCcheckFlow[sink_25,sink_26] 15
WCcheckFlow[sink_26,sink_9] 10
WCcheckFlow[sink_9,sink_18] 9
WCcheckFlow[sink_26,sink_4] 4
WCcheckFlow[sink_4,sink_20] 3
WCcheckFlow[sink_18,sink_6] 8
WCcheckFlow[sink_25,innode_8] -36
WCcheckFlow[sink_6,sink_7] 5
WCcheckFlow[sink_6,sink_22] 2
WCcheckFlow[sink_7,sink_24] 3
WCcheckFlow[sink_22,sink_1] 1
WCcheckFlow[sink_24,sink_21] 2
WCcheckFlow[sink_21,sink_12] 1
WCcheckFlow[sink_7,sink_5] 1
WCcheckFlow[sink_5,sink_17] 0
WCcheckFlow[sink_17,sink_4] 0
WCcheckFlow[sink_17,sink_8] -1
WCcheckFlow[sink_3,sink_23] 1
WCcheckFlow[sink_8,sink_20] -2
WCcheckFlow[sink_25,sink_20] 0
WCcheckFlow[sink_25,sink_15] 6
WCcheckFlow[sink_15,sink_29] 5
WCcheckFlow[sink_29,sink_28] 1
WCcheckFlow[sink_29,sink_2] 1
WCcheckFlow[sink_2,sink_15] 0
WCcheckFlow[sink_29,innode_7] 2
WCcheckFlow[innode_4,sink_19] -4
WCcheckFlow[sink_19,innode_3] 1
WCcheckFlow[innode_4,innode_5] 2
WCcheckFlow[sink_27,innode_5] -1
WCcheckFlow[sink_27,sink_19] 0
WCcheckFlow[sink_10,sink_11] 3
WCcheckFlow[sink_10,innode_2] 7
WCcheckFlow[sink_10,innode_3] 0
WCcheckFlow[innode_6,sink_25] -14
WCcheckFlow[sink_11,innode_1] 2
WCcheckFlow[sink_19,innode_2] -6
WCcheckFlow[source_3,innode_4] -1
WCcheckFlow[source_2,innode_7] -1
WCcheckFlow[sink_3,innode_8] 37
